171
132
133
134
9
10
76
74
75
11
12
20
29
30
28
27
26
23
24
25
150
161
160
151
13
17
18
19
32
158
36
157
33
31
35
34
156
40
38
39
155
41
42
45
44
46
47
48
59
68
67
167
70
69
85
51
52
53
43
55
54
58
57
62
61
66
63
56
64
65
96
118
119
120
121
122
124
128
130
135
138
139
6
7
8
14
15
159
16
22
21
37
0
91
154
89
90
88
153
87
86
73
77
152
142
149
148
147
137
136
129
146
145
143
144
140
141
110
107
106
105
97
165
163
99
98
95
94
92
93
166
108
83
84
71
60
50
49
170
168
72
78
82
79
80
81
1
2
3
4
5
169
111
112
115
116
117
162
123
101
100
102
103
104
114
109
127
126
125
113
164
131
132
